Instance Name : rc206
Date : 2022-07-18
Solution
Route 1 : 92 71 72 42 39 38 36 40 44 43 41 35 37 54 93 96
Route 2 : 65 83 64 95 62 63 33 30 31 29 27 28 26 32 34 50 56 91 80
Route 3 : 90
Route 4 : 69 98 12 14 47 16 15 11 59 75 97 87 9 10 13 17 60 55
Route 5 : 61 2 45 5 8 7 79 73 78 53 88 6 46 4 3 1 100 70 68
Route 6 : 81 94 67 84 85 51 76 89 48 25 77 58 74
Route 7 : 82 99 52 86 57 23 21 18 19 49 20 22 24 66
